10J3M/DAT/10J3MUNL-13.dat
10 3
39.5464 39.5464
42.9788 42.9788
43.4708 43.4708
12.873 12.873
31.7612 31.7612
29.8569 29.8569
36.8979 36.8979
37.6143 37.6143
3.8362 3.8362
28.995 28.995
307.8305