10J3M/SOL/10J3MUNL-13.sol
solution status: optimal solution found
objective value:                     84.3086333333333
x#1#2                                               1 	(obj:0)
x#2#2                                               1 	(obj:0)
x#3#3                                               1 	(obj:0)
x#4#1                                               1 	(obj:0)
x#5#1                                               1 	(obj:0)
x#6#1                                               1 	(obj:0)
x#7#1                                               1 	(obj:0)
x#8#1                               0.734796936483771 	(obj:0)
x#8#3                               0.265203063516229 	(obj:0)
x#9#2                               0.246872357477314 	(obj:0)
x#9#3                               0.753127642522686 	(obj:0)
x#10#1                                              1 	(obj:0)
z                                    84.3086333333333 	(obj:1)
